unsat
(:added-eqs                   5381
 :arith-eq-adapter            69
 :arith-bound-propagations-lp 1087
 :arith-branch                3590
 :arith-conflicts             3109
 :arith-cube-calls            1665
 :arith-diseq                 2254
 :arith-fixed-eqs             1646
 :arith-gcd-calls             6704
 :arith-gcd-conflict          26
 :arith-gomory-cuts           5550
 :arith-hnf-calls             11
 :arith-lower                 89139
 :arith-make-feasible         29027
 :arith-max-columns           113
 :arith-max-rows              68
 :arith-nla-propagate-bounds  4
 :arith-offset-eqs            1171
 :arith-patches               6678
 :arith-patches-success       4
 :arith-upper                 124200
 :binary-propagations         149017
 :conflicts                   3125
 :decisions                   13385
 :del-clause                  7067
 :final-checks                6704
 :max-memory                  23.91
 :memory                      18.01
 :minimized-lits              258
 :mk-bool-var                 8722
 :mk-clause                   7448
 :mk-clause-binary            6136
 :num-allocs                  3343115732
 :num-checks                  1
 :propagations                198939
 :restarts                    25
 :rlimit-count                1363184
 :time                        3.54
 :total-time                  3.54)
